7345
1 0 1 1 1 0 1 0 0 1 0 1 0 0 1 0 0 1 0 1
4 17 0 6 9 19 0 6 17 4 2 0 2 6 2 3 2 9 2 2 3 0 19 4 14 11 9 19 9 19 0 6 11 3 6 11 3 2 4 4 11 14 6 17 2 6 4 4 0 4 3 0 17 9 14 2 19 14 17 17 4 17 9 14 6 4 3 6 17 19 11 6 11 11 6 17 4 11 9 19